DATASET = "thpack4";
INSTANCE = "013";

WIDTH = 233;
HEIGHT = 220;
LENGTH = 587;

NO_OF_SHAPES = 10;
size = [|
  52,36,25 |
  63,37,21 |
  100,61,36 |
  79,52,36 |
  99,63,36 |
  97,49,30 |
  90,69,55 |
  91,33,28 |
  111,76,41 |
  95,44,35 |
|];

verticality = [|
  0,1,1 |
  0,1,1 |
  0,1,1 |
  0,1,1 |
  0,1,1 |
  0,1,1 |
  1,1,1 |
  0,1,1 |
  0,1,1 |
  0,1,1 |
|];

box_count = [
  27,
  13,
  16,
  18,
  13,
  12,
  16,
  14,
  24,
  16,
];
